GLPSOL: GLPK LP/MIP Solver, v4.55
Parameter(s) specified in the command line:
 -m tmp.mod
Reading model section from tmp.mod...
Reading data section from tmp.mod...
141 lines were read
Generating obj...
Generating kirhoff...
Generating init_charge...
Generating batt_size...
Model has been successfully generated
GLPK Simplex Optimizer, v4.55
69 rows, 120 columns, 232 non-zeros
Preprocessing...
52 rows, 98 columns, 192 non-zeros
Scaling...
 A: min|aij| =  1.000e+00  max|aij| =  1.000e+00  ratio =  1.000e+00
Problem data seem to be well scaled
Constructing initial basis...
Size of triangular part is 50
      0: obj =   0.000000000e+00  infeas =  2.600e+01 (2)
*    15: obj =   6.000000000e+00  infeas =  0.000e+00 (2)
OPTIMAL LP SOLUTION FOUND
Time used:   0.0 secs
Memory used: 0.3 Mb (343078 bytes)
#OUTPUT:
6
-5 -13 0 0 0 -6 -6 -1 -1 0 0 -1 0 0 0 0 -6 0 0 0 -6 0 1 1 0 0 
-5 -1 0 0 0 -6 0 0 -1 0 0 0 0 0 0 0 0 0 0 0 0 -12 1 0 0 0 
#OUTPUT END
Model has been successfully processed
